c read Graph
c width = 28
c time = 546 ms
c width = 3
c time = 640 ms
c width = 3
c time = 4261 ms
s td 45 4 48
b 1 1 2 17
b 2 2 3 17 18
b 3 14 15 31 32
b 4 3 17 18 34
b 5 3 18 19 34
b 6 14 31 32 47
b 7 3 19 34 35
b 8 3 19 35 36
b 9 14 31 46 47
b 10 3 4 19 36
b 11 4 19 20 36
b 12 4 20 21 36
b 13 14 30 31 46
b 14 4 21 36 37
b 15 4 21 37 38
b 16 14 30 45 46
b 17 4 5 21 38
b 18 5 21 22 38
b 19 5 6 22 38
b 20 14 29 30 45
b 21 13 14 29 45
b 22 6 7 22 38
b 23 7 22 23 38
b 24 7 23 38 39
b 25 7 8 23 39
b 26 8 23 24 39
b 27 8 24 39 40
b 28 8 9 24 40
b 29 9 24 25 40
b 30 9 25 40 41
b 31 9 10 25 41
b 32 10 25 26 41
b 33 10 26 41 42
b 34 10 11 26 42
b 35 11 26 27 42
b 36 11 27 42 43
b 37 11 12 27 43
b 38 12 27 28 43
b 39 12 28 43 44
b 40 12 13 28 44
b 41 13 28 29 44
b 42 13 29 44 45
b 43 32 47 48
b 44 17 33 34
b 45 15 16 32
1 2
2 4
3 45
3 6
4 44
4 5
5 7
6 43
6 9
7 8
8 10
9 13
10 11
11 12
12 14
13 16
14 15
15 17
16 20
17 18
18 19
19 22
20 21
21 42
22 23
23 24
24 25
25 26
26 27
27 28
28 29
29 30
30 31
31 32
32 33
33 34
34 35
35 36
36 37
37 38
38 39
39 40
40 41
41 42
